POSCAR_AlTeF_1                          
   1.00000000000000     
     3.5659306747988491   -2.0589141721198918   -0.0019113838483430
     3.5659306747988491    2.0589141721198918   -0.0019113838483430
    -0.0113072113204706    0.0000000000000000   15.6199391790625057
   Al   Te   F 
     1     1     1
Direct
  0.0000197021657749  0.0000197021657749  0.0169786119787034
  0.3331151168966995  0.3331151168966995  0.9390303782725946
  0.9998651809375311  0.9998651809375311  0.1229910097487025
 
  0.00000000E+00  0.00000000E+00  0.00000000E+00
  0.00000000E+00  0.00000000E+00  0.00000000E+00
  0.00000000E+00  0.00000000E+00  0.00000000E+00
