POSCAR_GaTeBr_0                         
   1.00000000000000     
     4.1831520626743508    0.0000640616455900    0.0002041183113681
     0.0000655794153550    6.0284907766640119    0.0255324183460400
     0.0016512457002104    0.1389080001765208   33.3934721830707986
   Ga   Te   Br
     2     2     2
Direct
  0.7466608079764825  0.6915142028145240  0.1025620976701944
  0.2466745204329683  0.1941074558133664  0.0454008286402328
  0.2466442176524311  0.9656022353116143  0.1141620957589140
  0.7466835355384873  0.4689964280039192  0.0338013055463975
  0.2468058184890936  0.9639703414010370  0.9888064686595754
  0.7465310999105412  0.4568093366555388  0.1592672037246956
 
  0.00000000E+00  0.00000000E+00  0.00000000E+00
  0.00000000E+00  0.00000000E+00  0.00000000E+00
  0.00000000E+00  0.00000000E+00  0.00000000E+00
  0.00000000E+00  0.00000000E+00  0.00000000E+00
  0.00000000E+00  0.00000000E+00  0.00000000E+00
  0.00000000E+00  0.00000000E+00  0.00000000E+00
