POSCAR_InSeBr_1                         
   1.00000000000000     
     3.5925326364595391   -2.0744415322369241   -0.0012592291729563
     3.5925326364595391    2.0744415322369241   -0.0012592291729563
    -0.0077927705993124    0.0000000000000000   21.4027877621393188
   In   Se   Br
     1     1     1
Direct
  0.9998927628512533  0.9998927628512533  0.0067426830658803
  0.3331174620951458  0.3331174620951458  0.9497881888015343
  0.9999897750535993  0.9999897750535993  0.1224691281325860
 
  0.00000000E+00  0.00000000E+00  0.00000000E+00
  0.00000000E+00  0.00000000E+00  0.00000000E+00
  0.00000000E+00  0.00000000E+00  0.00000000E+00
