POSCAR_AlSeBr_0                         
   1.00000000000000     
     3.8801196857771525    0.0000048267881152    0.0000769887932827
    -0.0000328037125224    5.6265532199091011    0.0222535969296645
     0.0006624446945973    0.1106710249658614   32.3915319305533274
   Al   Se   Br
     2     2     2
Direct
  0.7466607204556611  0.6856106954500122  0.1050092729146907
  0.2466785439620151  0.1881615939383383  0.0429942431418465
  0.2466542923189691  0.9544499661471079  0.1068632292122866
  0.7466778240556775  0.4572413642116900  0.0411466345659811
  0.2466765618597522  0.9816326309974668  0.9831706428136312
  0.7466520573479219  0.4739037492553773  0.1648159773515808
 
  0.00000000E+00  0.00000000E+00  0.00000000E+00
  0.00000000E+00  0.00000000E+00  0.00000000E+00
  0.00000000E+00  0.00000000E+00  0.00000000E+00
  0.00000000E+00  0.00000000E+00  0.00000000E+00
  0.00000000E+00  0.00000000E+00  0.00000000E+00
  0.00000000E+00  0.00000000E+00  0.00000000E+00
