POSCAR_AlOI_1                           
   1.00000000000000     
     2.8643694416013230   -1.6708631359526516   -0.0001410986118643
     2.8643694416013230    1.6708631359526516   -0.0001410986118643
    -0.0062539436587976    0.0000000000000000   15.3532749260222818
   Al   O    I 
     1     1     1
Direct
  0.9999603427963940  0.9999603427963940  0.9776774787757750
  0.3332442640570490  0.3332442640570490  0.9531783134950881
  0.9997953931465555  0.9997953931465555  0.1481442077291374
 
  0.00000000E+00  0.00000000E+00  0.00000000E+00
  0.00000000E+00  0.00000000E+00  0.00000000E+00
  0.00000000E+00  0.00000000E+00  0.00000000E+00
