POSCAR_InTeBr_0                         
   1.00000000000000     
     4.4393624056291818   -0.0000473032212502   -0.0000720599782570
    -0.0001457062360751    6.3024101763046882    0.0255279914982346
    -0.0006384940496112    0.1387117009523552   34.3578511902131680
   In   Te   Br
     2     2     2
Direct
  0.7467169326276640  0.7015480709237090  0.1027708131443673
  0.2467063492696592  0.2040341757407784  0.0452289955114629
  0.2467399392268743  0.9786470455016034  0.1176061329225522
  0.7467225209593157  0.4825135725104082  0.0304034402694246
  0.2465199704301844  0.9408591062224760  0.9893442682739232
  0.7465942874863063  0.4333980291010318  0.1586463498782794
 
  0.00000000E+00  0.00000000E+00  0.00000000E+00
  0.00000000E+00  0.00000000E+00  0.00000000E+00
  0.00000000E+00  0.00000000E+00  0.00000000E+00
  0.00000000E+00  0.00000000E+00  0.00000000E+00
  0.00000000E+00  0.00000000E+00  0.00000000E+00
  0.00000000E+00  0.00000000E+00  0.00000000E+00
