POSCAR_AlSI_1                           
   1.00000000000000     
     3.2892441745987555   -1.8992443746036745   -0.0008822495275849
     3.2892441745987555    1.8992443746036745   -0.0008822495275849
    -0.0055728961183731    0.0000000000000000   19.2056132220376767
   Al   S    I 
     1     1     1
Direct
  0.9998752608783832  0.9998752608783832  0.9998714809817102
  0.3331364426440260  0.3331364426440260  0.9512625035832869
  0.9999882964775964  0.9999882964775964  0.1278660154350035
 
  0.00000000E+00  0.00000000E+00  0.00000000E+00
  0.00000000E+00  0.00000000E+00  0.00000000E+00
  0.00000000E+00  0.00000000E+00  0.00000000E+00
