POSCAR_AlSBr_1                          
   1.00000000000000     
     3.2014998395353866   -1.8483693349141019   -0.0009605315506320
     3.2014998395353866    1.8483693349141019   -0.0009605315506320
    -0.0059928440314803    0.0000000000000000   18.7885691812056592
   Al   S    Br
     1     1     1
Direct
  0.9998680271239451  0.9998680271239451  0.0039129732759378
  0.3331394467395157  0.3331394467395157  0.9521131720806295
  0.9999925261365377  0.9999925261365377  0.1229738546434334
 
  0.00000000E+00  0.00000000E+00  0.00000000E+00
  0.00000000E+00  0.00000000E+00  0.00000000E+00
  0.00000000E+00  0.00000000E+00  0.00000000E+00
