POSCAR_GaTeI_1                          
   1.00000000000000     
     3.6483311581570410   -2.1074283385908417   -0.0013349100485790
     3.6483311581570410    2.1074283385908417   -0.0013349100485790
    -0.0082518513834248    0.0000000000000000   21.5559973933600872
   Ga   Te   I 
     1     1     1
Direct
  0.9998775462008851  0.9998775462008851  0.0065325334131572
  0.3331284473508944  0.3331284473508944  0.9498926541979742
  0.9999940064482260  0.9999940064482260  0.1225748123888692
 
  0.00000000E+00  0.00000000E+00  0.00000000E+00
  0.00000000E+00  0.00000000E+00  0.00000000E+00
  0.00000000E+00  0.00000000E+00  0.00000000E+00
