POSCAR_GaSBr_1                          
   1.00000000000000     
     3.2348734562774202   -1.8677094471455551   -0.0011111470684849
     3.2348734562774202    1.8677094471455551   -0.0011111470684849
    -0.0068266236887347    0.0000000000000000   19.4846559042788172
   Ga   S    Br
     1     1     1
Direct
  0.9998780957938251  0.9998780957938251  0.0046804054212473
  0.3331317186929255  0.3331317186929255  0.9524699228224520
  0.9999901855132478  0.9999901855132478  0.1218496717563013
 
  0.00000000E+00  0.00000000E+00  0.00000000E+00
  0.00000000E+00  0.00000000E+00  0.00000000E+00
  0.00000000E+00  0.00000000E+00  0.00000000E+00
