POSCAR_AlTeBr_0                         
   1.00000000000000     
     4.1747407066665394   -0.0001764560368698    0.0000692889347556
    -0.0002637780319055    6.0341805048689094    0.0246301309557683
     0.0005544169846330    0.1305532903939899   33.4283200177303641
   Al   Te   Br
     2     2     2
Direct
  0.7465934363596389  0.6838131918402510  0.1050913094461379
  0.2466141148640730  0.1866479988474552  0.0428820443057703
  0.2466433438016509  0.9610774380836560  0.1118122441797738
  0.7466687548100026  0.4644893681890068  0.0361307243262630
  0.2467613195432961  0.9759177018360603  0.9863652329465964
  0.7467190306213425  0.4690543012035704  0.1617184447954614
 
  0.00000000E+00  0.00000000E+00  0.00000000E+00
  0.00000000E+00  0.00000000E+00  0.00000000E+00
  0.00000000E+00  0.00000000E+00  0.00000000E+00
  0.00000000E+00  0.00000000E+00  0.00000000E+00
  0.00000000E+00  0.00000000E+00  0.00000000E+00
  0.00000000E+00  0.00000000E+00  0.00000000E+00
