POSCAR_InSCl_0                          
   1.00000000000000     
     4.0179382584415499   -0.0003545661554905    0.0001305905655912
    -0.0005798733256654    5.7330969850722413    0.0241417858123950
     0.0010315510639258    0.1261103933808122   32.7645666895036314
   In   S    Cl
     2     2     2
Direct
  0.7469769418569712  0.7003497540441614  0.1053594137834111
  0.2469959197768148  0.2031119531393344  0.0426159729580107
  0.2470101605745256  0.9708042453513883  0.1093218552429391
  0.7470204970226249  0.4737768695353637  0.0386860215146285
  0.2459786106686153  0.9502947826748525  0.9859499604108137
  0.7460178701004523  0.4426623952548994  0.1620667760902066
 
  0.00000000E+00  0.00000000E+00  0.00000000E+00
  0.00000000E+00  0.00000000E+00  0.00000000E+00
  0.00000000E+00  0.00000000E+00  0.00000000E+00
  0.00000000E+00  0.00000000E+00  0.00000000E+00
  0.00000000E+00  0.00000000E+00  0.00000000E+00
  0.00000000E+00  0.00000000E+00  0.00000000E+00
