POSCAR_InTeCl_0                         
   1.00000000000000     
     4.4278532062417879   -0.0001939429179057    0.0000207105411146
    -0.0003953396212365    6.2106426454445565    0.0252484016826089
     0.0001642360069727    0.1360710515627089   32.9334467767183412
   In   Te   Cl
     2     2     2
Direct
  0.7468222658010930  0.7036863692891160  0.1029598640181675
  0.2468332370746822  0.2062570432633564  0.0450321657728168
  0.2468423428112985  0.9804775604251716  0.1207561186879360
  0.7468542108009331  0.4845267740429193  0.0272432680993901
  0.2463552818851085  0.9365820534324101  0.9925697967305922
  0.7462926616268888  0.4294701995470334  0.1554387866911000
 
  0.00000000E+00  0.00000000E+00  0.00000000E+00
  0.00000000E+00  0.00000000E+00  0.00000000E+00
  0.00000000E+00  0.00000000E+00  0.00000000E+00
  0.00000000E+00  0.00000000E+00  0.00000000E+00
  0.00000000E+00  0.00000000E+00  0.00000000E+00
  0.00000000E+00  0.00000000E+00  0.00000000E+00
