POSCAR_GaSeCl_1                         
   1.00000000000000     
     3.3429990825921894   -1.9305876265970212   -0.0011939985432231
     3.3429990825921894    1.9305876265970212   -0.0011939985432231
    -0.0070904554226896    0.0000000000000000   19.4760050722535638
   Ga   Se   Cl
     1     1     1
Direct
  0.9998808429978041  0.9998808429978041  0.0088002424458367
  0.3331254767827190  0.3331254767827190  0.9512489700933813
  0.9999936802194824  0.9999936802194824  0.1189507874607756
 
  0.00000000E+00  0.00000000E+00  0.00000000E+00
  0.00000000E+00  0.00000000E+00  0.00000000E+00
  0.00000000E+00  0.00000000E+00  0.00000000E+00
