POSCAR_AlSeCl_0                         
   1.00000000000000     
     3.8495086036996842    0.0008622129456328   -0.0001436027211942
     0.0012404526478268    5.5753904717723222    0.0178126168910272
    -0.0011169577313906    0.0917781817682279   31.1484661918662091
   Al   Se   Cl
     2     2     2
Direct
  0.7465672930780560  0.6835617349495648  0.1060166297148850
  0.2465145418709390  0.1859463988253209  0.0420138035448911
  0.2464331303159907  0.9558526790181986  0.1090219191069511
  0.7463673469311710  0.4584108412312501  0.0389880713998160
  0.2469208542560769  0.9820837875182981  0.9853203408986545
  0.7471968335477772  0.4751445584573670  0.1626392353348193
 
  0.00000000E+00  0.00000000E+00  0.00000000E+00
  0.00000000E+00  0.00000000E+00  0.00000000E+00
  0.00000000E+00  0.00000000E+00  0.00000000E+00
  0.00000000E+00  0.00000000E+00  0.00000000E+00
  0.00000000E+00  0.00000000E+00  0.00000000E+00
  0.00000000E+00  0.00000000E+00  0.00000000E+00
