POSCAR_GaOCl_1                          
   1.00000000000000     
     2.8097043055741340   -1.6226982498723075   -0.0007558233600854
     2.8097043055741340    1.6226982498723075   -0.0007558233600854
    -0.0047494467872290    0.0000000000000000   16.9620020220811902
   Ga   O    Cl
     1     1     1
Direct
  0.9998613554330547  0.9998613554330547  0.9967466993397167
  0.3331540497332028  0.3331540497332028  0.9595771295936544
  0.9999845948337409  0.9999845948337409  0.1226761710666224
 
  0.00000000E+00  0.00000000E+00  0.00000000E+00
  0.00000000E+00  0.00000000E+00  0.00000000E+00
  0.00000000E+00  0.00000000E+00  0.00000000E+00
