POSCAR_GaSeI_0                          
   1.00000000000000     
     3.9977886119755448   -0.0000675033668340    0.0001484270331230
    -0.0001978049990308    5.6496308112700984    0.0227723295587930
     0.0012268175583024    0.0972925675453977   34.4416547565843842
   Ga   Se   I 
     2     2     2
Direct
  0.7467242329853150  0.6886754572938969  0.1029056070681662
  0.2467701751104414  0.1910378327643230  0.0450800200177639
  0.2467370800492787  0.9586854801107521  0.1059653499364899
  0.7467718022253820  0.4611660674190503  0.0420448927710027
  0.2465321334537265  0.9745990441642434  0.9811458825138928
  0.7464645761758604  0.4668361182477412  0.1668582476926872
 
  0.00000000E+00  0.00000000E+00  0.00000000E+00
  0.00000000E+00  0.00000000E+00  0.00000000E+00
  0.00000000E+00  0.00000000E+00  0.00000000E+00
  0.00000000E+00  0.00000000E+00  0.00000000E+00
  0.00000000E+00  0.00000000E+00  0.00000000E+00
  0.00000000E+00  0.00000000E+00  0.00000000E+00
