POSCAR_AlSBr_0                          
   1.00000000000000     
     3.7278581423283073    0.0001141742480082   -0.0000776632542678
     0.0001065232061029    5.3592109161188795    0.0202899710086912
    -0.0006258478021420    0.0977416661383873   31.6076195784593921
   Al   S    Br
     2     2     2
Direct
  0.7466381162407743  0.6886699840465482  0.1055338392479541
  0.2466355308173078  0.1911512368585093  0.0424598664958964
  0.2466213379292128  0.9446563655910722  0.1025239793124229
  0.7466171317894066  0.4468959242135142  0.0455085407036435
  0.2467163575349929  0.9886883904926762  0.9801392305803205
  0.7467715256883025  0.4809380987976795  0.1678345436597866
 
  0.00000000E+00  0.00000000E+00  0.00000000E+00
  0.00000000E+00  0.00000000E+00  0.00000000E+00
  0.00000000E+00  0.00000000E+00  0.00000000E+00
  0.00000000E+00  0.00000000E+00  0.00000000E+00
  0.00000000E+00  0.00000000E+00  0.00000000E+00
  0.00000000E+00  0.00000000E+00  0.00000000E+00
