POSCAR_GaTeCl_1                         
   1.00000000000000     
     3.6081108331450067   -2.0842663593848827   -0.0014614694051466
     3.6081108331450067    2.0842663593848827   -0.0014614694051466
    -0.0086187577245539    0.0000000000000000   20.1010642225200158
   Ga   Te   Cl
     1     1     1
Direct
  0.9998754511875220  0.9998754511875220  0.0108491059819946
  0.3331279176574483  0.3331279176574483  0.9500819748676420
  0.9999966311550282  0.9999966311550282  0.1180689191503640
 
  0.00000000E+00  0.00000000E+00  0.00000000E+00
  0.00000000E+00  0.00000000E+00  0.00000000E+00
  0.00000000E+00  0.00000000E+00  0.00000000E+00
