POSCAR_GaSI_1                           
   1.00000000000000     
     3.3198165594484053   -1.9164257749165499   -0.0010225220088614
     3.3198165594484053    1.9164257749165499   -0.0010225220088614
    -0.0063841918021994    0.0000000000000000   20.0283126577305559
   Ga   S    I 
     1     1     1
Direct
  0.9998880630050823  0.9998880630050823  0.0011495537181589
  0.3331132361390799  0.3331132361390799  0.9523052843779398
  0.9999987008558363  0.9999987008558363  0.1255451619039019
 
  0.00000000E+00  0.00000000E+00  0.00000000E+00
  0.00000000E+00  0.00000000E+00  0.00000000E+00
  0.00000000E+00  0.00000000E+00  0.00000000E+00
