POSCAR_InTeCl_1                         
   1.00000000000000     
     3.8354820806311789   -2.2152404752488146   -0.0013838648521836
     3.8354820806311789    2.2152404752488146   -0.0013838648521836
    -0.0083720374963171    0.0000000000000000   21.5068304518351425
   In   Te   Cl
     1     1     1
Direct
  0.9998851538986947  0.9998851538986947  0.0104175200213183
  0.3331194217348254  0.3331194217348254  0.9489798332189264
  0.9999954243664784  0.9999954243664784  0.1196026467597560
 
  0.00000000E+00  0.00000000E+00  0.00000000E+00
  0.00000000E+00  0.00000000E+00  0.00000000E+00
  0.00000000E+00  0.00000000E+00  0.00000000E+00
