POSCAR_GaSeBr_0                         
   1.00000000000000     
     3.9097348664447167   -0.0000334121829532   -0.0000227205479289
    -0.0000885858874634    5.6560029959476683    0.0216206437819974
    -0.0001742478059193    0.1117496119744873   32.8709971844171207
   Ga   Se   Br
     2     2     2
Direct
  0.7466751242340995  0.6890849588969190  0.1030492231095259
  0.2466774010661708  0.1915582301501318  0.0449595559552431
  0.2466842342822048  0.9609289485569933  0.1089175517802770
  0.7466781308621983  0.4638198925698446  0.0390837510575512
  0.2466130641955555  0.9716350415569970  0.9855002447340814
  0.7466720453597823  0.4639729282691211  0.1624896733633240
 
  0.00000000E+00  0.00000000E+00  0.00000000E+00
  0.00000000E+00  0.00000000E+00  0.00000000E+00
  0.00000000E+00  0.00000000E+00  0.00000000E+00
  0.00000000E+00  0.00000000E+00  0.00000000E+00
  0.00000000E+00  0.00000000E+00  0.00000000E+00
  0.00000000E+00  0.00000000E+00  0.00000000E+00
