POSCAR_GaSI_0                           
   1.00000000000000     
     3.8740935439677697   -0.0000370985231874   -0.0000033953344955
    -0.0001412281878334    5.3371166926153935    0.0190002377968490
    -0.0000256698504710    0.0686048509090112   33.8452430624813161
   Ga   S    I 
     2     2     2
Direct
  0.7466785349744569  0.6889662478449168  0.1040023914771311
  0.2466886369872654  0.1912534814720743  0.0440366175724733
  0.2466896249177282  0.9506637473509869  0.1020054066701661
  0.7466961722078551  0.4529862085301133  0.0459782677846903
  0.2466212318194110  0.9821981163356313  0.9778402846813066
  0.7466257990932874  0.4749321984662913  0.1701370318142423
 
  0.00000000E+00  0.00000000E+00  0.00000000E+00
  0.00000000E+00  0.00000000E+00  0.00000000E+00
  0.00000000E+00  0.00000000E+00  0.00000000E+00
  0.00000000E+00  0.00000000E+00  0.00000000E+00
  0.00000000E+00  0.00000000E+00  0.00000000E+00
  0.00000000E+00  0.00000000E+00  0.00000000E+00
