POSCAR_AlTeI_1                          
   1.00000000000000     
     3.6374477876808946   -2.1006962515707972   -0.0010834502655803
     3.6374477876808946    2.1006962515707972   -0.0010834502655803
    -0.0068754068304645    0.0000000000000000   21.0082896628512223
   Al   Te   I 
     1     1     1
Direct
  0.9998788525832509  0.9998788525832509  0.0063501617436472
  0.3331293047864108  0.3331293047864108  0.9485004922629869
  0.9999918426303367  0.9999918426303367  0.1241493459933665
 
  0.00000000E+00  0.00000000E+00  0.00000000E+00
  0.00000000E+00  0.00000000E+00  0.00000000E+00
  0.00000000E+00  0.00000000E+00  0.00000000E+00
