POSCAR_InOBr_0                          
   1.00000000000000     
     4.1475625765803459    0.0002707716805610   -0.0005091357402018
     0.0003408559510791    3.6847175570817678    0.0137445306646449
    -0.0033340839670800    0.0271015524432347   24.2643746707003594
   In   O    Br
     2     2     2
Direct
  0.7455359888186200  0.8722991506212164  0.1155464113770048
  0.2454864856650233  0.3746470360729071  0.0324454734440558
  0.2455926266887693  0.8730657041820701  0.0871560095932326
  0.7456074868643923  0.3738499598081804  0.0608327670504336
  0.2487492490687373  0.8771751239008367  0.9505973255795118
  0.7490281628944622  0.3699630254147890  0.1974220129557782
 
  0.00000000E+00  0.00000000E+00  0.00000000E+00
  0.00000000E+00  0.00000000E+00  0.00000000E+00
  0.00000000E+00  0.00000000E+00  0.00000000E+00
  0.00000000E+00  0.00000000E+00  0.00000000E+00
  0.00000000E+00  0.00000000E+00  0.00000000E+00
  0.00000000E+00  0.00000000E+00  0.00000000E+00
