POSCAR_AlTeCl_1                         
   1.00000000000000     
     3.5869943637048096   -2.0716507217706916   -0.0011063953424513
     3.5869943637048096    2.0716507217706916   -0.0011063953424513
    -0.0067211967852626    0.0000000000000000   19.6039231227051260
   Al   Te   Cl
     1     1     1
Direct
  0.9998741666030422  0.9998741666030422  0.0116568647948862
  0.3331258414608129  0.3331258414608129  0.9490065956441586
 -0.0000000080638496 -0.0000000080638496  0.1183365395609559
 
  0.00000000E+00  0.00000000E+00  0.00000000E+00
  0.00000000E+00  0.00000000E+00  0.00000000E+00
  0.00000000E+00  0.00000000E+00  0.00000000E+00
