POSCAR_AlSCl_1                          
   1.00000000000000     
     3.1635441427395348   -1.8265950998193019   -0.0008762698066211
     3.1635441427395348    1.8265950998193019   -0.0008762698066211
    -0.0054397716043621    0.0000000000000000   18.2604124456329799
   Al   S    Cl
     1     1     1
Direct
  0.9998793818363438  0.9998793818363438  0.0064076800244521
  0.3331225784658969  0.3331225784658969  0.9523419231655552
  0.9999980396977577  0.9999980396977577  0.1202503968099933
 
  0.00000000E+00  0.00000000E+00  0.00000000E+00
  0.00000000E+00  0.00000000E+00  0.00000000E+00
  0.00000000E+00  0.00000000E+00  0.00000000E+00
