POSCAR_InOI_0                           
   1.00000000000000     
     4.1298709790263564    0.0002462611612635    0.0010159501041193
    -0.0004697790295087    3.8606574024400935    0.0077422588577179
     0.0132609388102556    0.0310656213239300   24.5833835629067359
   In   O    I 
     2     2     2
Direct
  0.7461744230104093  0.8725518529825735  0.1144451613457478
  0.2465155593425911  0.3744047066795632  0.0335572770286159
  0.2463021420518124  0.8731507513637747  0.0841830215930644
  0.7464285707886709  0.3736576205804213  0.0637896670152085
  0.2477105083426996  0.8764332379003069  0.9446052640376479
  0.7468687964638208  0.3708018304933604  0.2034196089797253
 
  0.00000000E+00  0.00000000E+00  0.00000000E+00
  0.00000000E+00  0.00000000E+00  0.00000000E+00
  0.00000000E+00  0.00000000E+00  0.00000000E+00
  0.00000000E+00  0.00000000E+00  0.00000000E+00
  0.00000000E+00  0.00000000E+00  0.00000000E+00
  0.00000000E+00  0.00000000E+00  0.00000000E+00
