POSCAR_AlSI_0                           
   1.00000000000000     
     3.8434859557499577    0.0000295341462652    0.0000966898963032
    -0.0000513809051037    5.3117282996039537    0.0183554225445159
     0.0008699429893794    0.0677714713136118   32.4959817156293340
   Al   S    I 
     2     2     2
Direct
  0.7466929295905373  0.6921933304942627  0.1052576710191886
  0.2467160068919014  0.1944936844909435  0.0427315909644292
  0.2466955537622297  0.9419498489854945  0.1005991797601311
  0.7467190787496136  0.4437397662638034  0.0474043108887869
  0.2466110020627355  0.9877729558671362  0.9744841872906278
  0.7465654289429864  0.4808504138983594  0.1735230600768389
 
  0.00000000E+00  0.00000000E+00  0.00000000E+00
  0.00000000E+00  0.00000000E+00  0.00000000E+00
  0.00000000E+00  0.00000000E+00  0.00000000E+00
  0.00000000E+00  0.00000000E+00  0.00000000E+00
  0.00000000E+00  0.00000000E+00  0.00000000E+00
  0.00000000E+00  0.00000000E+00  0.00000000E+00
