POSCAR_AlTeF_0                          
   1.00000000000000     
     4.1246274506152467    0.0006917088855952   -0.0029818683007992
     0.0008361162695716    5.5702976811913940    0.0145959609744563
    -0.0200760971475587    0.0880723388007385   27.2647672664559479
   Al   Te   F 
     2     2     2
Direct
  0.7468380528748213  0.6790904019583104  0.1100945420520699
  0.2461299756221128  0.1810673974561493  0.0379011424983314
  0.2468923101713605  0.9731420356447399  0.1263172830874681
  0.7458688833763411  0.4761085287454738  0.0217077230115791
  0.2463442676869141  0.9680069792481650  0.9944758642482938
  0.7479265102684541  0.4635846569471541  0.1535034451022675
 
  0.00000000E+00  0.00000000E+00  0.00000000E+00
  0.00000000E+00  0.00000000E+00  0.00000000E+00
  0.00000000E+00  0.00000000E+00  0.00000000E+00
  0.00000000E+00  0.00000000E+00  0.00000000E+00
  0.00000000E+00  0.00000000E+00  0.00000000E+00
  0.00000000E+00  0.00000000E+00  0.00000000E+00
