POSCAR_AlOBr_0                          
   1.00000000000000     
     3.2517218840452689    0.0004643428831577   -0.0009100716343007
     0.0004093946752112    4.4168546886629096    0.0167104592847051
    -0.0074228096188830    0.0630795295327607   23.6937278056779839
   Al   O    Br
     2     2     2
Direct
  0.7472504142062968  0.6938007138967368  0.1076658033522880
  0.2469544866629248  0.1962173222836540  0.0403723899545356
  0.2471763895650801  0.8640803163176788  0.0869775181897703
  0.7470057408134103  0.3648831746767454  0.0610801181711817
  0.2452790730468117  0.0665209836120444  0.9491259165221571
  0.7463338957054876  0.5554974892131406  0.1987782538100700
 
  0.00000000E+00  0.00000000E+00  0.00000000E+00
  0.00000000E+00  0.00000000E+00  0.00000000E+00
  0.00000000E+00  0.00000000E+00  0.00000000E+00
  0.00000000E+00  0.00000000E+00  0.00000000E+00
  0.00000000E+00  0.00000000E+00  0.00000000E+00
  0.00000000E+00  0.00000000E+00  0.00000000E+00
