POSCAR_InSBr_1                          
   1.00000000000000     
     3.4699099980147881   -2.0032670780028048   -0.0012296251492758
     3.4699099980147881    2.0032670780028048   -0.0012296251492758
    -0.0076854627246685    0.0000000000000000   20.7710057884244641
   In   S    Br
     1     1     1
Direct
  0.9998840348525704  0.9998840348525704  0.0045283618329819
  0.3331279833546574  0.3331279833546574  0.9508795448885010
  0.9999879817927777  0.9999879817927777  0.1235920932785177
 
  0.00000000E+00  0.00000000E+00  0.00000000E+00
  0.00000000E+00  0.00000000E+00  0.00000000E+00
  0.00000000E+00  0.00000000E+00  0.00000000E+00
