POSCAR_InSeCl_1                         
   1.00000000000000     
     3.5828931333581071   -2.0688955815624888   -0.0012741179206127
     3.5828931333581071    2.0688955815624888   -0.0012741179206127
    -0.0077769548720545    0.0000000000000000   20.8736581520243583
   In   Se   Cl
     1     1     1
Direct
  0.9998894513230496  0.9998894513230496  0.0083641889841388
  0.3331176274480754  0.3331176274480754  0.9500981044495376
  0.9999929212288734  0.9999929212288734  0.1205377065663171
 
  0.00000000E+00  0.00000000E+00  0.00000000E+00
  0.00000000E+00  0.00000000E+00  0.00000000E+00
  0.00000000E+00  0.00000000E+00  0.00000000E+00
