POSCAR_InSCl_1                          
   1.00000000000000     
     3.4562658582305796   -1.9953531438890739   -0.0012764103580107
     3.4562658582305796    1.9953531438890739   -0.0012764103580107
    -0.0079036760534009    0.0000000000000000   20.2935706881747819
   In   S    Cl
     1     1     1
Direct
  0.9998766603582183  0.9998766603582183  0.0062400338079698
  0.3331333437415793  0.3331333437415793  0.9512980052752980
  0.9999899959002008  0.9999899959002008  0.1214619609167329
 
  0.00000000E+00  0.00000000E+00  0.00000000E+00
  0.00000000E+00  0.00000000E+00  0.00000000E+00
  0.00000000E+00  0.00000000E+00  0.00000000E+00
