POSCAR_GaSCl_0                          
   1.00000000000000     
     3.7214960447747174   -0.0001932287929243    0.0001642441112207
    -0.0003186781282881    5.3906888112996985    0.0223733029861855
     0.0013748059325893    0.1144498452111175   31.2353278026635763
   Ga   S    Cl
     2     2     2
Direct
  0.7466884917312626  0.6894275860712185  0.1044046977711659
  0.2467343527193790  0.1921622019472764  0.0436049958945759
  0.2467154593217771  0.9557639921959549  0.1068060922126577
  0.7467781589176994  0.4587798434377248  0.0411901002195734
  0.2466056550907822  0.9765294567649079  0.9854236481613725
  0.7464778822191107  0.4683369195829172  0.1625704657406644
 
  0.00000000E+00  0.00000000E+00  0.00000000E+00
  0.00000000E+00  0.00000000E+00  0.00000000E+00
  0.00000000E+00  0.00000000E+00  0.00000000E+00
  0.00000000E+00  0.00000000E+00  0.00000000E+00
  0.00000000E+00  0.00000000E+00  0.00000000E+00
  0.00000000E+00  0.00000000E+00  0.00000000E+00
