POSCAR_GaSBr_0                          
   1.00000000000000     
     3.7641081193772070   -0.0000328841257820    0.0000201275850152
    -0.0001307276218087    5.3957542318950997    0.0210364246986317
     0.0001541060277439    0.0979131897167395   32.5315768416123916
   Ga   S    Br
     2     2     2
Direct
  0.7466538980063859  0.6888923571640149  0.1040856783399988
  0.2466571490042853  0.1914584917001321  0.0439120894070300
  0.2466632724874600  0.9535149035960870  0.1043811105918522
  0.7466756823091885  0.4561100096489596  0.0436235980998489
  0.2467144663232048  0.9794136149755559  0.9826507299624438
  0.7466355318694866  0.4716106229152430  0.1653467935988360
 
  0.00000000E+00  0.00000000E+00  0.00000000E+00
  0.00000000E+00  0.00000000E+00  0.00000000E+00
  0.00000000E+00  0.00000000E+00  0.00000000E+00
  0.00000000E+00  0.00000000E+00  0.00000000E+00
  0.00000000E+00  0.00000000E+00  0.00000000E+00
  0.00000000E+00  0.00000000E+00  0.00000000E+00
