POSCAR_GaSeI_1                          
   1.00000000000000     
     3.4344068731475179   -1.9833632781700510   -0.0011083326572441
     3.4344068731475179    1.9833632781700510   -0.0011083326572441
    -0.0069032863976060    0.0000000000000000   20.7490467034959245
   Ga   Se   I 
     1     1     1
Direct
  0.9998782374548227  0.9998782374548227  0.0039207031754387
  0.3331267856813867  0.3331267856813867  0.9510950391606556
  0.9999949768637890  0.9999949768637890  0.1239842576639063
 
  0.00000000E+00  0.00000000E+00  0.00000000E+00
  0.00000000E+00  0.00000000E+00  0.00000000E+00
  0.00000000E+00  0.00000000E+00  0.00000000E+00
