POSCAR_AlSeBr_1                         
   1.00000000000000     
     3.3369744768201852   -1.9268796732664724   -0.0009673759908541
     3.3369744768201852    1.9268796732664724   -0.0009673759908541
    -0.0059888628875422    0.0000000000000000   19.4858857004967057
   Al   Se   Br
     1     1     1
Direct
  0.9998789604498697  0.9998789604498697  0.0067150194927663
  0.3331253366768863  0.3331253366768863  0.9504999761609980
  0.9999957028732425  0.9999957028732425  0.1217850043462363
 
  0.00000000E+00  0.00000000E+00  0.00000000E+00
  0.00000000E+00  0.00000000E+00  0.00000000E+00
  0.00000000E+00  0.00000000E+00  0.00000000E+00
