POSCAR_InTeBr_1                         
   1.00000000000000     
     3.8346634397659303   -2.2147115801658002   -0.0013873273449254
     3.8346634397659303    2.2147115801658002   -0.0013873273449254
    -0.0085543978663861    0.0000000000000000   22.1231178215862556
   In   Te   Br
     1     1     1
Direct
  0.9998884482003092  0.9998884482003092  0.0089625868548850
  0.3331182460341822  0.3331182460341822  0.9488158089017702
  0.9999933057655142  0.9999933057655142  0.1212216042433383
 
  0.00000000E+00  0.00000000E+00  0.00000000E+00
  0.00000000E+00  0.00000000E+00  0.00000000E+00
  0.00000000E+00  0.00000000E+00  0.00000000E+00
