POSCAR_InTeF_0                          
   1.00000000000000     
     4.4366342778856493    0.0000578088356727    0.0015192043692573
    -0.0002588385628659    5.5680342274574892    0.0222192285569689
     0.0101775215739176    0.1326956957367162   27.3543595866503075
   In   Te   F 
     2     2     2
Direct
  0.7470137598508908  0.7131958280950093  0.1079557032299296
  0.2473543433392317  0.2156725313706134  0.0399807266418518
  0.2468113348810836  0.0030214400197540  0.1354676424314332
  0.7473976003079935  0.5076397423660365  0.0125503868635858
  0.2460472175363114  0.9036017464378420  0.9997385356905483
  0.7453757440845001  0.3978687117107375  0.1483070051426681
 
  0.00000000E+00  0.00000000E+00  0.00000000E+00
  0.00000000E+00  0.00000000E+00  0.00000000E+00
  0.00000000E+00  0.00000000E+00  0.00000000E+00
  0.00000000E+00  0.00000000E+00  0.00000000E+00
  0.00000000E+00  0.00000000E+00  0.00000000E+00
  0.00000000E+00  0.00000000E+00  0.00000000E+00
