POSCAR_AlTeCl_0                         
   1.00000000000000     
     4.1577801788089239   -0.0005367066103778   -0.0000971231063287
    -0.0007778134003595    5.9673454528103740    0.0230566505527828
    -0.0007590859345375    0.1247744211940143   32.3719653311013076
   Al   Te   Cl
     2     2     2
Direct
  0.7467665490695836  0.6820622111003374  0.1058255844299580
  0.2467645660278421  0.1849056021894171  0.0421960338802023
  0.2468665073384457  0.9620394785912012  0.1138720851244770
  0.7468580212498637  0.4654582976370065  0.0341253967150905
  0.2463273543212381  0.9770474654678978  0.9892794049433320
  0.7464170019930307  0.4694869450141468  0.1587014949069427
 
  0.00000000E+00  0.00000000E+00  0.00000000E+00
  0.00000000E+00  0.00000000E+00  0.00000000E+00
  0.00000000E+00  0.00000000E+00  0.00000000E+00
  0.00000000E+00  0.00000000E+00  0.00000000E+00
  0.00000000E+00  0.00000000E+00  0.00000000E+00
  0.00000000E+00  0.00000000E+00  0.00000000E+00
