POSCAR_AlOBr_1                          
   1.00000000000000     
     2.7944436189705852   -1.5996504990386857    0.0011889663313643
     2.7944436189705852    1.5996504990386857    0.0011889663313643
     0.0067942421157104    0.0000000000000000   16.3539116269472906
   Al   O    Br
     1     1     1
Direct
  0.9999018056169560  0.9999018056169560  0.9909624592206782
  0.3329606846005318  0.3329606846005318  0.9596601780300617
  0.0001375097825106  0.0001375097825106  0.1283773627492608
 
  0.00000000E+00  0.00000000E+00  0.00000000E+00
  0.00000000E+00  0.00000000E+00  0.00000000E+00
  0.00000000E+00  0.00000000E+00  0.00000000E+00
