POSCAR_AlOF_0                           
   1.00000000000000     
     3.0244608627230978   -0.0004138676052568    0.0014684475518045
    -0.0007572082189559    4.7244938060163193    0.0152504524220396
     0.0122503959318181    0.0980512590737464   22.4708832191427845
   Al   O    F 
     2     2     2
Direct
  0.7467360862189182  0.6778432757729208  0.1076457847751562
  0.2467219988920330  0.1800021733115978  0.0403127592316928
  0.2471248293063604  0.8595366180065172  0.0859250496919467
  0.7465748142295284  0.3603343207134875  0.0620650567116590
  0.2437300764800385  0.0843857159063435  0.9699483710933938
  0.7491121948731184  0.5788978962891256  0.1781029784961756
 
  0.00000000E+00  0.00000000E+00  0.00000000E+00
  0.00000000E+00  0.00000000E+00  0.00000000E+00
  0.00000000E+00  0.00000000E+00  0.00000000E+00
  0.00000000E+00  0.00000000E+00  0.00000000E+00
  0.00000000E+00  0.00000000E+00  0.00000000E+00
  0.00000000E+00  0.00000000E+00  0.00000000E+00
