POSCAR_InOI_1                           
   1.00000000000000     
     3.1659575601547960   -1.8365850327963376   -0.0005923728077996
     3.1659575601547960    1.8365850327963376   -0.0005923728077996
    -0.0036954474780950    0.0000000000000000   18.3738099325790678
   In   O    I 
     1     1     1
Direct
  0.9995360481049119  0.9995360481049119  0.9849542452320522
  0.3334355635460265  0.3334355635460265  0.9557332486731823
  0.0000283883490670  0.0000283883490670  0.1383125060947733
 
  0.00000000E+00  0.00000000E+00  0.00000000E+00
  0.00000000E+00  0.00000000E+00  0.00000000E+00
  0.00000000E+00  0.00000000E+00  0.00000000E+00
