POSCAR_InSBr_0                          
   1.00000000000000     
     4.0491558887636314   -0.0002273947004633   -0.0001117577260286
    -0.0004306338089411    5.7187299237458991    0.0212872593396279
    -0.0009149202205231    0.1002426521479621   34.1659749786644795
   In   S    Br
     2     2     2
Direct
  0.7468446186614486  0.6971104364034915  0.1054956682541075
  0.2468043472258330  0.1995503170422523  0.0425060149017682
  0.2468683484087535  0.9683148662161543  0.1065188863683346
  0.7468425786677528  0.4706387694464311  0.0414918596620382
  0.2464428616647822  0.9564360052689267  0.9821839778982380
  0.7461972453714338  0.4489496056227438  0.1658035929155233
 
  0.00000000E+00  0.00000000E+00  0.00000000E+00
  0.00000000E+00  0.00000000E+00  0.00000000E+00
  0.00000000E+00  0.00000000E+00  0.00000000E+00
  0.00000000E+00  0.00000000E+00  0.00000000E+00
  0.00000000E+00  0.00000000E+00  0.00000000E+00
  0.00000000E+00  0.00000000E+00  0.00000000E+00
