POSCAR_GaTeCl_0                         
   1.00000000000000     
     4.1702784196593425    0.0000664622434481   -0.0002618134736674
     0.0000439010510477    5.9377537047510813    0.0237943481430073
    -0.0020884609256478    0.1295317604992855   32.1366815223118536
   Ga   Te   Cl
     2     2     2
Direct
  0.7466439879869782  0.6916272342402507  0.1031645840997584
  0.2465725159715433  0.1941816722593330  0.0448455656911690
  0.2466564463678793  0.9673095599035264  0.1167757882499458
  0.7465650523463125  0.4709797394103532  0.0312304782105528
  0.2466317296445979  0.9622088892821239  0.9913898259722842
  0.7469302676826928  0.4546929049044124  0.1565937577763066
 
  0.00000000E+00  0.00000000E+00  0.00000000E+00
  0.00000000E+00  0.00000000E+00  0.00000000E+00
  0.00000000E+00  0.00000000E+00  0.00000000E+00
  0.00000000E+00  0.00000000E+00  0.00000000E+00
  0.00000000E+00  0.00000000E+00  0.00000000E+00
  0.00000000E+00  0.00000000E+00  0.00000000E+00
