POSCAR_InSeCl_0                         
   1.00000000000000     
     4.1526341966033913    0.0000059355774401   -0.0000448823873711
    -0.0000726960762991    5.9516850728071899    0.0249975028555169
    -0.0003843153215760    0.1352081876937459   32.4190156076988742
   In   Se   Cl
     2     2     2
Direct
  0.7465875149451824  0.7016921979853418  0.1037188814966761
  0.2465775489307816  0.2043647822619892  0.0442847340995236
  0.2466026480056733  0.9758093592866406  0.1152037720345302
  0.7465778016346768  0.4795588926759770  0.0328099032784903
  0.2467341434606067  0.9436996264884469  0.9887692922406951
  0.7469203430230904  0.4358751413016043  0.1592134168500944
 
  0.00000000E+00  0.00000000E+00  0.00000000E+00
  0.00000000E+00  0.00000000E+00  0.00000000E+00
  0.00000000E+00  0.00000000E+00  0.00000000E+00
  0.00000000E+00  0.00000000E+00  0.00000000E+00
  0.00000000E+00  0.00000000E+00  0.00000000E+00
  0.00000000E+00  0.00000000E+00  0.00000000E+00
