POSCAR_InOCl_0                          
   1.00000000000000     
     4.1724982349521786   -0.0008982168676776   -0.0053127618286247
     0.0002488078536100    3.5981730165942944    0.0104616799431698
    -0.0342465828470277   -0.0071346536346660   20.3247503804084424
   In   O    Cl
     2     2     2
Direct
  0.7473110984801147  0.8725919508315105  0.1236457452390866
  0.2458467387288740  0.3740777581505914  0.0243611500556269
  0.2468495360016938  0.8727852240244585  0.0916338383762794
  0.7463105536713783  0.3733081970750093  0.0563568754063278
  0.2448337335866037  0.8760636901308760  0.9341919869074738
  0.7488483395313392  0.3721731797875467  0.2138104040152221
 
  0.00000000E+00  0.00000000E+00  0.00000000E+00
  0.00000000E+00  0.00000000E+00  0.00000000E+00
  0.00000000E+00  0.00000000E+00  0.00000000E+00
  0.00000000E+00  0.00000000E+00  0.00000000E+00
  0.00000000E+00  0.00000000E+00  0.00000000E+00
  0.00000000E+00  0.00000000E+00  0.00000000E+00
