POSCAR_InSeBr_0                         
   1.00000000000000     
     4.1721644341294457    0.0000603848415489    0.0001272560153781
     0.0000320394125032    5.9824667854657356    0.0241495741397182
     0.0010420237903230    0.1256985136859497   34.2255291978734988
   In   Se   Br
     2     2     2
Direct
  0.7467352891559713  0.6985777022664479  0.1036940606042336
  0.2467529514828186  0.2009658685341265  0.0442995305302318
  0.2467065640542643  0.9745146989185827  0.1116232896892768
  0.7467324858265556  0.4778918988274157  0.0364102474784360
  0.2466028051234730  0.9482487203755028  0.9859006836119732
  0.7464699043569212  0.4408011110779242  0.1620721880858582
 
  0.00000000E+00  0.00000000E+00  0.00000000E+00
  0.00000000E+00  0.00000000E+00  0.00000000E+00
  0.00000000E+00  0.00000000E+00  0.00000000E+00
  0.00000000E+00  0.00000000E+00  0.00000000E+00
  0.00000000E+00  0.00000000E+00  0.00000000E+00
  0.00000000E+00  0.00000000E+00  0.00000000E+00
