POSCAR_InTeI_1                          
   1.00000000000000     
     3.8553285677275517   -2.2266443983515671   -0.0013866153999070
     3.8553285677275517    2.2266443983515671   -0.0013866153999070
    -0.0087388355159111    0.0000000000000000   22.7959987388476613
   In   Te   I 
     1     1     1
Direct
  0.9998892297925934  0.9998892297925934  0.0065832321782153
  0.3331218243455538  0.3331218243455538  0.9482801932092215
  0.9999889458618583  0.9999889458618583  0.1241365746125638
 
  0.00000000E+00  0.00000000E+00  0.00000000E+00
  0.00000000E+00  0.00000000E+00  0.00000000E+00
  0.00000000E+00  0.00000000E+00  0.00000000E+00
