POSCAR_GaSeCl_0                         
   1.00000000000000     
     3.8741724492085492   -0.0002142202029497   -0.0000863924753628
    -0.0003215296507205    5.6093264478968781    0.0229288026538068
    -0.0007067209842576    0.1224249222115549   31.7199387738376473
   Ga   Se   Cl
     2     2     2
Direct
  0.7467519970917351  0.6890777511902115  0.1033774433283412
  0.2467331046826473  0.1915981563002092  0.0446021337720595
  0.2467843691832243  0.9626282462978466  0.1112053974157163
  0.7467564142080576  0.4658675227412772  0.0367974344369202
  0.2464577680034452  0.9696166105293784  0.9884169384737618
  0.7465163468308944  0.4622117129410697  0.1596006525732108
 
  0.00000000E+00  0.00000000E+00  0.00000000E+00
  0.00000000E+00  0.00000000E+00  0.00000000E+00
  0.00000000E+00  0.00000000E+00  0.00000000E+00
  0.00000000E+00  0.00000000E+00  0.00000000E+00
  0.00000000E+00  0.00000000E+00  0.00000000E+00
  0.00000000E+00  0.00000000E+00  0.00000000E+00
