POSCAR_GaTeBr_1                         
   1.00000000000000     
     3.6145653050371562   -2.0880183049185845   -0.0013942049799190
     3.6145653050371562    2.0880183049185845   -0.0013942049799190
    -0.0083837521995472    0.0000000000000000   20.7601757088818992
   Ga   Te   Br
     1     1     1
Direct
  0.9998756529894592  0.9998756529894592  0.0091428455721356
  0.3331291422001854  0.3331291422001854  0.9500323637953301
  0.9999952048103538  0.9999952048103538  0.1198247906325349
 
  0.00000000E+00  0.00000000E+00  0.00000000E+00
  0.00000000E+00  0.00000000E+00  0.00000000E+00
  0.00000000E+00  0.00000000E+00  0.00000000E+00
