POSCAR_AlSeF_0                          
   1.00000000000000     
     3.8110035279595884   -0.0000937452976055   -0.0207470576684124
    -0.0001699700177270    5.2918493715877561   -0.0008868375505201
    -0.1584392591236291    0.0070806085310705   22.2797815995027264
   Al   Se   F 
     2     2     2
Direct
  0.7498254551735061  0.6818998950234781  0.1165683436634413
  0.2436734392622919  0.1823419007063612  0.0315309855543971
  0.2507399388450341  0.9662898137059812  0.1285372982292350
  0.7427966187095875  0.4666355774428332  0.0195233600238669
  0.2391879680908561  0.9727937176300779  0.9754803116206165
  0.7537765799187212  0.4710390954912680  0.1723597009084601
 
  0.00000000E+00  0.00000000E+00  0.00000000E+00
  0.00000000E+00  0.00000000E+00  0.00000000E+00
  0.00000000E+00  0.00000000E+00  0.00000000E+00
  0.00000000E+00  0.00000000E+00  0.00000000E+00
  0.00000000E+00  0.00000000E+00  0.00000000E+00
  0.00000000E+00  0.00000000E+00  0.00000000E+00
