POSCAR_InSF_0                           
   1.00000000000000     
     3.7064839500795199   -0.0040706705448239   -0.0456744803790311
    -0.0055398902794062    5.8201695493192700   -0.0093313624726565
    -0.2514915894343453   -0.0327345009611190   18.3753271507492535
   In   S    F 
     2     2     2
Direct
  0.7037298352417380  0.7320609536400013  0.0950970720274498
  0.2893958324282835  0.2311256512765496  0.0528661400469872
  0.1947403921841087  0.9517399374022233  0.1556045771180621
  0.7995548838662216  0.4500466756301051  0.9925716540920178
  0.5206910863701921  0.9370812897095178  0.9997981010953225
  0.4718879699094671  0.4389454923416025  0.1480624556201704
 
  0.00000000E+00  0.00000000E+00  0.00000000E+00
  0.00000000E+00  0.00000000E+00  0.00000000E+00
  0.00000000E+00  0.00000000E+00  0.00000000E+00
  0.00000000E+00  0.00000000E+00  0.00000000E+00
  0.00000000E+00  0.00000000E+00  0.00000000E+00
  0.00000000E+00  0.00000000E+00  0.00000000E+00
