POSCAR_AlTeI_0                          
   1.00000000000000     
     4.2249322601687975   -0.0000371965463511    0.0000562483939741
    -0.0000856508013248    6.1048644755491583    0.0234881588614715
     0.0004834838461210    0.1162266221398713   34.6966483162915011
   Al   Te   I 
     2     2     2
Direct
  0.7466813827964103  0.6861871392422856  0.1043782524643504
  0.2466858934985083  0.1883394006576182  0.0435865085708116
  0.2466875296325668  0.9592687845781995  0.1093586457488058
  0.7466968797382023  0.4619617088785049  0.0386807239540516
  0.2466352282731918  0.9761910584987206  0.9818212960781239
  0.7466130860611173  0.4690519081446638  0.1661745731838664
 
  0.00000000E+00  0.00000000E+00  0.00000000E+00
  0.00000000E+00  0.00000000E+00  0.00000000E+00
  0.00000000E+00  0.00000000E+00  0.00000000E+00
  0.00000000E+00  0.00000000E+00  0.00000000E+00
  0.00000000E+00  0.00000000E+00  0.00000000E+00
  0.00000000E+00  0.00000000E+00  0.00000000E+00
