POSCAR_AlOCl_0                          
   1.00000000000000     
     3.1610487854097800    0.0000939272121829    0.0001775786077623
    -0.0000163795900774    4.5279335510842671    0.0105048927157655
     0.0016382374462770    0.0536985196515749   24.5852060006291318
   Al   O    Cl
     2     2     2
Direct
  0.7465235409054386  0.6879648202912574  0.1061330489390256
  0.2466475697352880  0.1896036469700605  0.0418863938762309
  0.2465519570143962  0.8630260359351006  0.0858437033322006
  0.7466649004993481  0.3637122937517410  0.0621100170079756
  0.2470947510286095  0.0712294786808954  0.9602657953373992
  0.7465172808169235  0.5654637243709518  0.1877610415071848
 
  0.00000000E+00  0.00000000E+00  0.00000000E+00
  0.00000000E+00  0.00000000E+00  0.00000000E+00
  0.00000000E+00  0.00000000E+00  0.00000000E+00
  0.00000000E+00  0.00000000E+00  0.00000000E+00
  0.00000000E+00  0.00000000E+00  0.00000000E+00
  0.00000000E+00  0.00000000E+00  0.00000000E+00
