POSCAR_GaOBr_1                          
   1.00000000000000     
     2.8734635702792755   -1.6531872730077353   -0.0003563389984162
     2.8734635702792755    1.6531872730077353   -0.0003563389984162
    -0.0024098560275153    0.0000000000000000   17.3402883110683774
   Ga   O    Br
     1     1     1
Direct
  0.9999691316909290  0.9999691316909290  0.9922896456081571
  0.3330239880320383  0.3330239880320383  0.9598525260276882
  0.0000068802770309  0.0000068802770309  0.1268578283641552
 
  0.00000000E+00  0.00000000E+00  0.00000000E+00
  0.00000000E+00  0.00000000E+00  0.00000000E+00
  0.00000000E+00  0.00000000E+00  0.00000000E+00
