POSCAR_InTeI_0                          
   1.00000000000000     
     4.4742186270167599   -0.0000746692421983    0.0001273212709830
    -0.0001411089456007    6.3992166067195795    0.0243343389939096
     0.0010408870529799    0.1293027553166491   36.0207483831323216
   In   Te   I 
     2     2     2
Direct
  0.7466292680190065  0.7000206187611084  0.1024322335924595
  0.2466423970250062  0.2022919786251407  0.0455602255894547
  0.2466406408707584  0.9761525051574083  0.1142061569610391
  0.7466680974037914  0.4793997915497386  0.0338003770563517
  0.2467426871197489  0.9452219018866543  0.9850638689327909
  0.7466769095616925  0.4379132040199494  0.1629371378679139
 
  0.00000000E+00  0.00000000E+00  0.00000000E+00
  0.00000000E+00  0.00000000E+00  0.00000000E+00
  0.00000000E+00  0.00000000E+00  0.00000000E+00
  0.00000000E+00  0.00000000E+00  0.00000000E+00
  0.00000000E+00  0.00000000E+00  0.00000000E+00
  0.00000000E+00  0.00000000E+00  0.00000000E+00
