POSCAR_AlSeI_0                          
   1.00000000000000     
     3.9744678745711033   -0.0001416161449496   -0.0000487154992091
    -0.0002697681770809    5.6163292493667187    0.0206637095418124
    -0.0004368656651316    0.0908945788833458   33.5704061964541012
   Al   Se   I 
     2     2     2
Direct
  0.7466978038481358  0.6880068881503334  0.1045599602471228
  0.2466858075201799  0.1901589493426954  0.0434341482476128
  0.2467383874490352  0.9524163404952048  0.1045813948211745
  0.7467270931363359  0.4546603634638018  0.0434212941528429
  0.2465650529608183  0.9815164590226004  0.9781603907773615
  0.7465858550854918  0.4742409995253638  0.1698428117538953
 
  0.00000000E+00  0.00000000E+00  0.00000000E+00
  0.00000000E+00  0.00000000E+00  0.00000000E+00
  0.00000000E+00  0.00000000E+00  0.00000000E+00
  0.00000000E+00  0.00000000E+00  0.00000000E+00
  0.00000000E+00  0.00000000E+00  0.00000000E+00
  0.00000000E+00  0.00000000E+00  0.00000000E+00
