POSCAR_GaOI_1                           
   1.00000000000000     
     2.9585385591435558   -1.7078596288288963   -0.0023257323292618
     2.9585385591435558    1.7078596288288963   -0.0023257323292618
    -0.0143461377703508    0.0000000000000000   17.7127385557410975
   Ga   O    I 
     1     1     1
Direct
  0.9999206148353277  0.9999206148353277  0.9839870184680661
  0.3332397228533684  0.3332397228533684  0.9596176696540869
  0.9998396623113023  0.9998396623113023  0.1353953118778476
 
  0.00000000E+00  0.00000000E+00  0.00000000E+00
  0.00000000E+00  0.00000000E+00  0.00000000E+00
  0.00000000E+00  0.00000000E+00  0.00000000E+00
