POSCAR_InSeI_0                          
   1.00000000000000     
     4.2416258214201763   -0.0000285175023665   -0.0000041060440999
    -0.0001092383896602    5.9574385299984538    0.0198804117609413
    -0.0000234868583779    0.0884238665948482   35.7481960907949414
   In   Se   I 
     2     2     2
Direct
  0.7467425241608936  0.6965398507854843  0.1039945780070397
  0.2467345184355736  0.1989246949926837  0.0440311022355573
  0.2467364634488973  0.9731549363191547  0.1085454320907075
  0.7467297973639830  0.4757817425512556  0.0394321843362633
  0.2465335954755474  0.9518712641423832  0.9807223015547848
  0.7465231011151090  0.4447275112090310  0.1672744017756571
 
  0.00000000E+00  0.00000000E+00  0.00000000E+00
  0.00000000E+00  0.00000000E+00  0.00000000E+00
  0.00000000E+00  0.00000000E+00  0.00000000E+00
  0.00000000E+00  0.00000000E+00  0.00000000E+00
  0.00000000E+00  0.00000000E+00  0.00000000E+00
  0.00000000E+00  0.00000000E+00  0.00000000E+00
