POSCAR_GaSeBr_1                         
   1.00000000000000     
     3.3669978668758302   -1.9442555637887819   -0.0012791321375142
     3.3669978668758302    1.9442555637887819   -0.0012791321375142
    -0.0077681703974124    0.0000000000000000   20.0790799320461808
   Ga   Se   Br
     1     1     1
Direct
  0.9998767079529784  0.9998767079529784  0.0069172543283855
  0.3331320198235730  0.3331320198235730  0.9512380378150098
  0.9999912722234470  0.9999912722234470  0.1208447078566053
 
  0.00000000E+00  0.00000000E+00  0.00000000E+00
  0.00000000E+00  0.00000000E+00  0.00000000E+00
  0.00000000E+00  0.00000000E+00  0.00000000E+00
