POSCAR_InSI_0                           
   1.00000000000000     
     4.1336174294639907    0.0000085182955036    0.0000211611342095
    -0.0001155384713297    5.6238353108453527    0.0188657614200851
     0.0002673912823018    0.0680043664522177   35.4978174981018171
   In   S    I 
     2     2     2
Direct
  0.7466768692752979  0.6957531572479283  0.1059789611927826
  0.2466664153076579  0.1978448086320981  0.0420258432284939
  0.2466728941754539  0.9660598983935671  0.1038549022958506
  0.7466731922687302  0.4681684599107285  0.0441620971194681
  0.2466712001597458  0.9599035682904002  0.9765714051272241
  0.7466394288131184  0.4532701075252774  0.1714067910361976
 
  0.00000000E+00  0.00000000E+00  0.00000000E+00
  0.00000000E+00  0.00000000E+00  0.00000000E+00
  0.00000000E+00  0.00000000E+00  0.00000000E+00
  0.00000000E+00  0.00000000E+00  0.00000000E+00
  0.00000000E+00  0.00000000E+00  0.00000000E+00
  0.00000000E+00  0.00000000E+00  0.00000000E+00
