POSCAR_AlOCl_1                          
   1.00000000000000     
     2.7043023801178232   -1.5626849690949112   -0.0003470074979099
     2.7043023801178232    1.5626849690949112   -0.0003470074979099
    -0.0022544221481212    0.0000000000000000   15.8405119440603741
   Al   O    Cl
     1     1     1
Direct
  0.9998793273807850  0.9998793273807850  0.9945839252093530
  0.3331390563485725  0.3331390563485725  0.9594470606583189
  0.9999816162706410  0.9999816162706410  0.1249690141323217
 
  0.00000000E+00  0.00000000E+00  0.00000000E+00
  0.00000000E+00  0.00000000E+00  0.00000000E+00
  0.00000000E+00  0.00000000E+00  0.00000000E+00
