POSCAR_AlTeBr_1                         
   1.00000000000000     
     3.5979022925443611   -2.0779476532997276   -0.0010360305943758
     3.5979022925443611    2.0779476532997276   -0.0010360305943758
    -0.0064302138753420    0.0000000000000000   20.2798282408174764
   Al   Te   Br
     1     1     1
Direct
  0.9998737281269002  0.9998737281269002  0.0095174066525201
  0.3331277145800111  0.3331277145800111  0.9489557576154579
  0.9999985572930871  0.9999985572930871  0.1205268357320226
 
  0.00000000E+00  0.00000000E+00  0.00000000E+00
  0.00000000E+00  0.00000000E+00  0.00000000E+00
  0.00000000E+00  0.00000000E+00  0.00000000E+00
