POSCAR_AlSeI_1                          
   1.00000000000000     
     3.4096279415861872   -1.9688336909773592   -0.0009557810534876
     3.4096279415861872    1.9688336909773592   -0.0009557810534876
    -0.0060526507322235    0.0000000000000000   20.0694958562827637
   Al   Se   I 
     1     1     1
Direct
  0.9998787161046252  0.9998787161046252  0.0031165693283697
  0.3331299442946545  0.3331299442946545  0.9500037119269606
  0.9999913396007187  0.9999913396007187  0.1258797187446703
 
  0.00000000E+00  0.00000000E+00  0.00000000E+00
  0.00000000E+00  0.00000000E+00  0.00000000E+00
  0.00000000E+00  0.00000000E+00  0.00000000E+00
