POSCAR_InSI_1                           
   1.00000000000000     
     3.5279771653876475   -2.0371134747353166   -0.0011022264794529
     3.5279771653876475    2.0371134747353166   -0.0011022264794529
    -0.0069750517736599    0.0000000000000000   21.1363835557964137
   In   S    I 
     1     1     1
Direct
  0.9998917800007376  0.9998917800007376  0.0013773337036724
  0.3331224202933925  0.3331224202933925  0.9499591425707550
  0.9999857997058683  0.9999857997058683  0.1276635237255732
 
  0.00000000E+00  0.00000000E+00  0.00000000E+00
  0.00000000E+00  0.00000000E+00  0.00000000E+00
  0.00000000E+00  0.00000000E+00  0.00000000E+00
