POSCAR_GaOBr_0                          
   1.00000000000000     
     3.3696496407981527   -0.0003406029431750   -0.0003913981588149
    -0.0006187213583937    4.5511772165196094    0.0104907231347816
    -0.0037463375765677    0.0590605065363727   26.0582471921182197
   Ga   O    Br
     2     2     2
Direct
  0.7467950765917462  0.6949947390303542  0.1082311741957963
  0.2466644466576820  0.1968519375353213  0.0397677293569567
  0.2467788865098682  0.8712589099054513  0.0876538129726832
  0.7467187184821864  0.3718298994491503  0.0603489116046478
  0.2461181773637745  0.0562219361774466  0.9558612236724016
  0.7469246943947468  0.5498425779022759  0.1921371481975311
 
  0.00000000E+00  0.00000000E+00  0.00000000E+00
  0.00000000E+00  0.00000000E+00  0.00000000E+00
  0.00000000E+00  0.00000000E+00  0.00000000E+00
  0.00000000E+00  0.00000000E+00  0.00000000E+00
  0.00000000E+00  0.00000000E+00  0.00000000E+00
  0.00000000E+00  0.00000000E+00  0.00000000E+00
