POSCAR_InSeI_1                          
   1.00000000000000     
     3.6375643615219779   -2.1005846793761962   -0.0012157642604386
     3.6375643615219779    2.1005846793761962   -0.0012157642604386
    -0.0076829865437518    0.0000000000000000   21.9433753983634681
   In   Se   I 
     1     1     1
Direct
  0.9998920185012921  0.9998920185012921  0.0039900046027270
  0.3331201022254504  0.3331201022254504  0.9492566215967528
  0.9999878792732630  0.9999878792732630  0.1257533738005208
 
  0.00000000E+00  0.00000000E+00  0.00000000E+00
  0.00000000E+00  0.00000000E+00  0.00000000E+00
  0.00000000E+00  0.00000000E+00  0.00000000E+00
