POSCAR_AlSeCl_1                         
   1.00000000000000     
     3.3108209885322797   -1.9117650698308555   -0.0009967759838297
     3.3108209885322797    1.9117650698308555   -0.0009967759838297
    -0.0060264417920697    0.0000000000000000   18.8867056104541362
   Al   Se   Cl
     1     1     1
Direct
  0.9998768818170014  0.9998768818170014  0.0089894930599820
  0.3331228475546806  0.3331228475546806  0.9506917110915849
  0.0000002706283164  0.0000002706283164  0.1193187958484337
 
  0.00000000E+00  0.00000000E+00  0.00000000E+00
  0.00000000E+00  0.00000000E+00  0.00000000E+00
  0.00000000E+00  0.00000000E+00  0.00000000E+00
