POSCAR_AlSCl_0                          
   1.00000000000000     
     3.6831423917088184    0.0001508596847842    0.0002170412463310
     0.0001781226749990    5.3343790021581743    0.0187865903481702
     0.0017848831904668    0.0940050944838044   30.2853372131733884
   Al   S    Cl
     2     2     2
Direct
  0.7467257835179657  0.6862823581933506  0.1066985959685177
  0.2467992468912448  0.1888506644501136  0.0413045663835334
  0.2466834783158350  0.9465765890501640  0.1046424271161997
  0.7467483945782541  0.4489875001953209  0.0433558847385882
  0.2466529056699327  0.9887030796067543  0.9819948739612253
  0.7463901910267791  0.4815998085042965  0.1660036518319383
 
  0.00000000E+00  0.00000000E+00  0.00000000E+00
  0.00000000E+00  0.00000000E+00  0.00000000E+00
  0.00000000E+00  0.00000000E+00  0.00000000E+00
  0.00000000E+00  0.00000000E+00  0.00000000E+00
  0.00000000E+00  0.00000000E+00  0.00000000E+00
  0.00000000E+00  0.00000000E+00  0.00000000E+00
