POSCAR_GaOF_0                           
   1.00000000000000     
     3.1907264450852475   -0.0003584121592641   -0.0017168749325699
    -0.0006019860173679    4.7425093688506239    0.0422887582450302
    -0.0139059348657028    0.2381459762608638   23.8889021336327545
   Ga   O    F 
     2     2     2
Direct
  0.7467859417910543  0.6940032690472696  0.1101012240405929
  0.2464435255604142  0.2008401503518890  0.0379122165843592
  0.2467527704165033  0.8939040262881056  0.0927618070848358
  0.7466880783007058  0.3974134819651771  0.0552570881439994
  0.2460202352023170  0.0374123706182120  0.9716820398938338
  0.7473094487290167  0.5174267017293461  0.1762856242523882
 
  0.00000000E+00  0.00000000E+00  0.00000000E+00
  0.00000000E+00  0.00000000E+00  0.00000000E+00
  0.00000000E+00  0.00000000E+00  0.00000000E+00
  0.00000000E+00  0.00000000E+00  0.00000000E+00
  0.00000000E+00  0.00000000E+00  0.00000000E+00
  0.00000000E+00  0.00000000E+00  0.00000000E+00
