POSCAR_AlSF_0                           
   1.00000000000000     
     3.6283809792756041    0.0001123338020549    0.0019106957206392
     0.0001557525462491    5.1254365074698072    0.0229391617480847
     0.0140708518385944    0.1286606216536289   26.1766809608448128
   Al   S    F 
     2     2     2
Direct
  0.7464205031247326  0.6831234720312277  0.1100033626900571
  0.2469955412583736  0.1866580482161892  0.0380256371616298
  0.2464627277279924  0.9556941533579933  0.1141067735776387
  0.7470965829612405  0.4597014364095712  0.0339004307165180
  0.2472407936676358  0.9822553332203929  0.9890795018862349
  0.7457838512600217  0.4735675567646253  0.1588842939679383
 
  0.00000000E+00  0.00000000E+00  0.00000000E+00
  0.00000000E+00  0.00000000E+00  0.00000000E+00
  0.00000000E+00  0.00000000E+00  0.00000000E+00
  0.00000000E+00  0.00000000E+00  0.00000000E+00
  0.00000000E+00  0.00000000E+00  0.00000000E+00
  0.00000000E+00  0.00000000E+00  0.00000000E+00
