POSCAR_GaSeF_0                          
   1.00000000000000     
     3.8387112739083986   -0.0003800437123690    0.0009483964334574
    -0.0005944374985591    5.2796783171101058    0.0119748680043663
     0.0071470725992187    0.0762663843247071   26.3976947995395754
   Ga   Se   F 
     2     2     2
Direct
  0.7466328384354757  0.6976644178302928  0.1059678382698413
  0.2469155762888245  0.1991989083134548  0.0420640993636294
  0.2466044198444406  0.9756157717976151  0.1244463428735167
  0.7470216522860138  0.4784187873116386  0.0236272482372306
  0.2468342138990696  0.9473052647203167  0.9952840387704398
  0.7459912992461798  0.4427968500266747  0.1526104324853519
 
  0.00000000E+00  0.00000000E+00  0.00000000E+00
  0.00000000E+00  0.00000000E+00  0.00000000E+00
  0.00000000E+00  0.00000000E+00  0.00000000E+00
  0.00000000E+00  0.00000000E+00  0.00000000E+00
  0.00000000E+00  0.00000000E+00  0.00000000E+00
  0.00000000E+00  0.00000000E+00  0.00000000E+00
