POSCAR_GaSCl_1                          
   1.00000000000000     
     3.2015713311275387   -1.8486263856252521   -0.0010249512208887
     3.2015713311275387    1.8486263856252521   -0.0010249512208887
    -0.0061678787789533    0.0000000000000000   18.9340601037668037
   Ga   S    Cl
     1     1     1
Direct
  0.9998859989534807  0.9998859989534807  0.0066809314139604
  0.3331201732182123  0.3331201732182123  0.9525537118949856
  0.9999938278283054  0.9999938278283054  0.1197653566910546
 
  0.00000000E+00  0.00000000E+00  0.00000000E+00
  0.00000000E+00  0.00000000E+00  0.00000000E+00
  0.00000000E+00  0.00000000E+00  0.00000000E+00
