POSCAR_GaOI_0                           
   1.00000000000000     
     3.8404709593110087    0.0010206283118546    0.0018443144171628
     0.0010357011351197    3.7667166450329370    0.0219629395827132
     0.0188847103500225    0.1337029305261958   20.3181026192047796
   Ga   O    I 
     2     2     2
Direct
  0.7461018751012762  0.7048187532725757  0.1135859907336316
  0.2467141805531050  0.2098630768659419  0.0344162712753372
  0.2464386641851603  0.7070891919896426  0.0747713307901771
  0.7464339796146486  0.2074513116218151  0.0732225342285055
  0.2482301072974480  0.2141730624007519  0.9123537502833745
  0.7460811932483659  0.6976046038492584  0.2356501226889908
 
  0.00000000E+00  0.00000000E+00  0.00000000E+00
  0.00000000E+00  0.00000000E+00  0.00000000E+00
  0.00000000E+00  0.00000000E+00  0.00000000E+00
  0.00000000E+00  0.00000000E+00  0.00000000E+00
  0.00000000E+00  0.00000000E+00  0.00000000E+00
  0.00000000E+00  0.00000000E+00  0.00000000E+00
