POSCAR_GaSF_0                           
   1.00000000000000     
     3.6677465835002181    0.0001783610631188    0.0002881510283772
     0.0002610185895049    5.1755556729539745    0.0061546987750361
     0.0022803734593895    0.0495356767212128   25.8468884634582778
   Ga   S    F 
     2     2     2
Direct
  0.7469551497736888  0.6976137475167374  0.1068668634484660
  0.2468667705869049  0.1985085103510063  0.0410253174114764
  0.2469138046558103  0.9688645826233587  0.1194392165212726
  0.7468155241612744  0.4700182295572490  0.0284320504925780
  0.2455133600075753  0.9533657786974581  0.9915099627297713
  0.7469353908147434  0.4526291512542044  0.1567265893964456
 
  0.00000000E+00  0.00000000E+00  0.00000000E+00
  0.00000000E+00  0.00000000E+00  0.00000000E+00
  0.00000000E+00  0.00000000E+00  0.00000000E+00
  0.00000000E+00  0.00000000E+00  0.00000000E+00
  0.00000000E+00  0.00000000E+00  0.00000000E+00
  0.00000000E+00  0.00000000E+00  0.00000000E+00
