POSCAR_InOF_0                           
   1.00000000000000     
     4.1737896426273497    0.0003617685575191   -0.0000492917773480
     0.0002472522492664    3.3915344499482996    0.0157134653024833
     0.0002001880674892    0.0684814862766077   17.9554460146205805
   In   O    F 
     2     2     2
Direct
  0.7466516043925717  0.8710139248894254  0.1310427644850076
  0.2466581137337399  0.3761002286606096  0.0169564471024020
  0.2466321252934985  0.8722790132750863  0.1000765064777282
  0.7466509302454273  0.3745720976918283  0.0479308237282035
  0.2467970945507966  0.8794084934352706  0.9420105421596354
  0.7466101317839697  0.3676262420477866  0.2059829160470260
 
  0.00000000E+00  0.00000000E+00  0.00000000E+00
  0.00000000E+00  0.00000000E+00  0.00000000E+00
  0.00000000E+00  0.00000000E+00  0.00000000E+00
  0.00000000E+00  0.00000000E+00  0.00000000E+00
  0.00000000E+00  0.00000000E+00  0.00000000E+00
  0.00000000E+00  0.00000000E+00  0.00000000E+00
