POSCAR_GaTeI_0                          
   1.00000000000000     
     4.2356991090544955   -0.0000768689631168   -0.0000345289810347
    -0.0001347153612860    6.1055696528723669    0.0238650967199271
    -0.0002808961356002    0.1268554398740926   35.0366853995384631
   Ga   Te   I 
     2     2     2
Direct
  0.7467040507611955  0.6921345354696982  0.1020844635255642
  0.2466933867855872  0.1943501006981094  0.0459097786353198
  0.2467193567161843  0.9635505953716859  0.1110127531902521
  0.7467063628921267  0.4667320061571871  0.0370142408557967
  0.2465642070578014  0.9658400269821215  0.9849893004702466
  0.7466126357871232  0.4583927353212047  0.1629894633228375
 
  0.00000000E+00  0.00000000E+00  0.00000000E+00
  0.00000000E+00  0.00000000E+00  0.00000000E+00
  0.00000000E+00  0.00000000E+00  0.00000000E+00
  0.00000000E+00  0.00000000E+00  0.00000000E+00
  0.00000000E+00  0.00000000E+00  0.00000000E+00
  0.00000000E+00  0.00000000E+00  0.00000000E+00
