POSCAR_InOBr_1                          
   1.00000000000000     
     3.1171581320026025   -1.7941946790880969   -0.0001184665929880
     3.1171581320026025    1.7941946790880969   -0.0001184665929880
    -0.0010688971831659    0.0000000000000000   18.3463943407550509
   In   O    Br
     1     1     1
Direct
  0.0000492114924243  0.0000492114924243  0.9924818474506629
  0.3329314177995734  0.3329314177995734  0.9571029927311840
  0.0000193707080007  0.0000193707080007  0.1294151598181537
 
  0.00000000E+00  0.00000000E+00  0.00000000E+00
  0.00000000E+00  0.00000000E+00  0.00000000E+00
  0.00000000E+00  0.00000000E+00  0.00000000E+00
