POSCAR_GaOCl_0                          
   1.00000000000000     
     3.2894203151453709    0.0001387518800084   -0.0002737398802915
    -0.0000620139681023    4.6125098417324288    0.0120767966330308
    -0.0022688854289209    0.0800747032138122   26.9104861695133515
   Ga   O    Cl
     2     2     2
Direct
  0.7468551339276879  0.6947405132856725  0.1072563091452182
  0.2467686970663251  0.1967571763710240  0.0407367556181477
  0.2468628209668296  0.8812482800494797  0.0884512439400152
  0.7467731294712836  0.3822616643615315  0.0595409507651723
  0.2461523894136988  0.0461878921889437  0.9656609212104746
  0.7465878291541858  0.5398044737433551  0.1823538193209886
 
  0.00000000E+00  0.00000000E+00  0.00000000E+00
  0.00000000E+00  0.00000000E+00  0.00000000E+00
  0.00000000E+00  0.00000000E+00  0.00000000E+00
  0.00000000E+00  0.00000000E+00  0.00000000E+00
  0.00000000E+00  0.00000000E+00  0.00000000E+00
  0.00000000E+00  0.00000000E+00  0.00000000E+00
