POSCAR_GaTeF_0                          
   1.00000000000000     
     4.1552826744764930    0.0002532764603619   -0.0047599896953938
     0.0002534026838936    5.4710678098705516    0.0141787763352301
    -0.0332008212434155    0.0970105088110013   24.7959396136860093
   Ga   Te   F 
     2     2     2
Direct
  0.7470600037002803  0.6965286948687753  0.1096433269182142
  0.2460256685261411  0.1989384807128028  0.0383415259726942
  0.2474228974280541  0.9815725830917592  0.1351399912730089
  0.7456275365119002  0.4855450555302718  0.0127966505126967
  0.2456979321376846  0.9416777145322783  0.9910361042781847
  0.7481659616959292  0.4367374712641122  0.1570424010452111
 
  0.00000000E+00  0.00000000E+00  0.00000000E+00
  0.00000000E+00  0.00000000E+00  0.00000000E+00
  0.00000000E+00  0.00000000E+00  0.00000000E+00
  0.00000000E+00  0.00000000E+00  0.00000000E+00
  0.00000000E+00  0.00000000E+00  0.00000000E+00
  0.00000000E+00  0.00000000E+00  0.00000000E+00
