POSCAR_AlOI_0                           
   1.00000000000000     
     3.2434934869699998    0.0000000000000000    0.0000000000000000
     0.0000000000000000    4.6406906813499997    0.0000000000000000
     0.0000000000000000    0.0000000000000000   24.9499498997000018
   Al   O    I 
     2     2     2
Direct
  0.7468230226966603  0.6878373872612678  0.1037517637837659
  0.2468214694682321  0.1878079928001292  0.0442361788370262
  0.2468588845414016  0.8544813633537170  0.0838006320503875
  0.7468578240289349  0.3545025486924765  0.0641816406210903
  0.2463130557836767  0.0776837351305854  0.9469660708253567
  0.7463257434810985  0.5786869727618241  0.2010637138823904
 
  0.00000000E+00  0.00000000E+00  0.00000000E+00
  0.00000000E+00  0.00000000E+00  0.00000000E+00
  0.00000000E+00  0.00000000E+00  0.00000000E+00
  0.00000000E+00  0.00000000E+00  0.00000000E+00
  0.00000000E+00  0.00000000E+00  0.00000000E+00
  0.00000000E+00  0.00000000E+00  0.00000000E+00
