POSCAR_InSeF_0                          
   1.00000000000000     
     4.1062709670719153    0.0000365213256158    0.0001705366385909
    -0.0000159322158102    5.6401432301937833    0.0160690163376304
     0.0019390595933313    0.1227439041015262   25.5145029008525057
   In   Se   F 
     2     2     2
Direct
  0.7459389460525004  0.7168850791784306  0.1062585498660405
  0.2460532600006180  0.2192498164966844  0.0416014331964277
  0.2460014950823007  0.9868703332159365  0.1329611064915797
  0.7461973628383368  0.4911922294673269  0.0148471324785684
  0.2483956495633658  0.9153903513815638  0.9982585401307297
  0.7474132864628751  0.4114121902600577  0.1500732378366639
 
  0.00000000E+00  0.00000000E+00  0.00000000E+00
  0.00000000E+00  0.00000000E+00  0.00000000E+00
  0.00000000E+00  0.00000000E+00  0.00000000E+00
  0.00000000E+00  0.00000000E+00  0.00000000E+00
  0.00000000E+00  0.00000000E+00  0.00000000E+00
  0.00000000E+00  0.00000000E+00  0.00000000E+00
